(set-info :smt-lib-version 2.6)
(set-logic QF_LRA)
(set-info :source |
TLP-GP automated DTP to SMT-LIB encoding for planning
by F.Maris and P.Regnier, IRIT - Universite Paul Sabatier, Toulouse

|)
(set-info :category "industrial")
(set-info :status sat)
(declare-fun St_spy_variable () Real)
(declare-fun t_Init_0 () Real)
(declare-fun t_Goal_6 () Real)
(declare-fun t_BAKE_CERAMIC2_p2_k2_2 () Real)
(declare-fun t_TREAT_CERAMIC2_p2_3 () Real)
(declare-fun t_BAKE_CERAMIC2_p2_k2_3 () Real)
(declare-fun t_BAKE_CERAMIC1_p1_k2_2 () Real)
(declare-fun t_TREAT_CERAMIC1_p1_3 () Real)
(declare-fun t_FIRE_KILN2_k2_2 () Real)
(declare-fun t_BAKE_CERAMIC1_p1_k2_3 () Real)
(declare-fun t_MAKE_STRUCTURE_p1_p2_4 () Real)
(declare-fun t_BAKE_STRUCTURE_p1_p2_k1_5 () Real)
(declare-fun t_BAKE_CERAMIC3_p4_k2_2 () Real)
(declare-fun t_TREAT_CERAMIC3_p4_3 () Real)
(declare-fun t_BAKE_CERAMIC3_p4_k1_3 () Real)
(declare-fun t_BAKE_CERAMIC2_p3_k2_2 () Real)
(declare-fun t_TREAT_CERAMIC2_p3_3 () Real)
(declare-fun t_BAKE_CERAMIC2_p3_k2_3 () Real)
(declare-fun t_MAKE_STRUCTURE_p3_p4_4 () Real)
(declare-fun t_BAKE_STRUCTURE_p3_p4_k1_5 () Real)
(declare-fun t_BAKE_CERAMIC3_p6_k2_2 () Real)
(declare-fun t_TREAT_CERAMIC3_p6_3 () Real)
(declare-fun t_BAKE_CERAMIC3_p6_k1_3 () Real)
(declare-fun t_FIRE_KILN2_k2_1 () Real)
(declare-fun t_BAKE_CERAMIC3_p5_k2_2 () Real)
(declare-fun t_TREAT_CERAMIC3_p5_3 () Real)
(declare-fun t_FIRE_KILN1_k1_2 () Real)
(declare-fun t_BAKE_CERAMIC3_p5_k1_3 () Real)
(declare-fun t_MAKE_STRUCTURE_p5_p6_4 () Real)
(declare-fun t_FIRE_KILN1_k1_1 () Real)
(declare-fun t_BAKE_STRUCTURE_p5_p6_k1_5 () Real)
(assert (let ((?v_14 (- t_Goal_6 t_BAKE_STRUCTURE_p1_p2_k1_5)) (?v_24 (- t_Goal_6 t_BAKE_STRUCTURE_p3_p4_k1_5)) (?v_34 (- t_Goal_6 t_BAKE_STRUCTURE_p5_p6_k1_5)) (?v_30 (- t_BAKE_CERAMIC3_p5_k2_2 t_FIRE_KILN2_k2_1))) (let ((?v_2 (<= ?v_30 15)) (?v_25 (- t_BAKE_CERAMIC3_p6_k2_2 t_FIRE_KILN2_k2_1))) (let ((?v_3 (<= ?v_25 15)) (?v_20 (- t_BAKE_CERAMIC2_p3_k2_3 t_FIRE_KILN2_k2_1))) (let ((?v_4 (<= ?v_20 10)) (?v_18 (- t_BAKE_CERAMIC2_p3_k2_2 t_FIRE_KILN2_k2_1))) (let ((?v_5 (<= ?v_18 10)) (?v_15 (- t_BAKE_CERAMIC3_p4_k2_2 t_FIRE_KILN2_k2_1))) (let ((?v_6 (<= ?v_15 15)) (?v_10 (- t_BAKE_CERAMIC1_p1_k2_2 t_FIRE_KILN2_k2_1))) (let ((?v_7 (<= ?v_10 5)) (?v_9 (- t_BAKE_CERAMIC2_p2_k2_3 t_FIRE_KILN2_k2_1))) (let ((?v_8 (<= ?v_9 10)) (?v_0 (- t_BAKE_CERAMIC2_p2_k2_2 t_FIRE_KILN2_k2_1)) (?v_1 (- t_TREAT_CERAMIC2_p2_3 t_BAKE_CERAMIC2_p2_k2_2)) (?v_11 (- t_TREAT_CERAMIC1_p1_3 t_BAKE_CERAMIC1_p1_k2_2)) (?v_12 (- t_BAKE_CERAMIC1_p1_k2_3 t_FIRE_KILN2_k2_2)) (?v_33 (- t_BAKE_STRUCTURE_p5_p6_k1_5 t_FIRE_KILN1_k1_1))) (let ((?v_21 (<= ?v_33 5)) (?v_23 (- t_BAKE_STRUCTURE_p3_p4_k1_5 t_FIRE_KILN1_k1_1))) (let ((?v_22 (<= ?v_23 5)) (?v_13 (- t_BAKE_STRUCTURE_p1_p2_k1_5 t_FIRE_KILN1_k1_1)) (?v_16 (- t_TREAT_CERAMIC3_p4_3 t_BAKE_CERAMIC3_p4_k2_2)) (?v_32 (- t_BAKE_CERAMIC3_p5_k1_3 t_FIRE_KILN1_k1_2))) (let ((?v_27 (<= ?v_32 3)) (?v_29 (- t_BAKE_CERAMIC3_p6_k1_3 t_FIRE_KILN1_k1_2))) (let ((?v_28 (<= ?v_29 3)) (?v_17 (- t_BAKE_CERAMIC3_p4_k1_3 t_FIRE_KILN1_k1_2)) (?v_19 (- t_TREAT_CERAMIC2_p3_3 t_BAKE_CERAMIC2_p3_k2_2)) (?v_26 (- t_TREAT_CERAMIC3_p6_3 t_BAKE_CERAMIC3_p6_k2_2)) (?v_31 (- t_TREAT_CERAMIC3_p5_3 t_BAKE_CERAMIC3_p5_k2_2)) (?v_42 (- t_BAKE_CERAMIC1_p1_k2_3 t_FIRE_KILN2_k2_1)) (?v_41 (> (- t_FIRE_KILN2_k2_2 t_FIRE_KILN2_k2_1) 20))) (let ((?v_37 (or (<= ?v_42 5) ?v_41)) (?v_38 (> (- t_FIRE_KILN2_k2_1 t_FIRE_KILN2_k2_2) 20)) (?v_36 (- t_BAKE_CERAMIC2_p2_k2_2 t_BAKE_CERAMIC2_p2_k2_3)) (?v_35 (- t_BAKE_CERAMIC2_p2_k2_3 t_BAKE_CERAMIC2_p2_k2_2)) (?v_40 (- t_BAKE_CERAMIC1_p1_k2_2 t_BAKE_CERAMIC1_p1_k2_3)) (?v_39 (- t_BAKE_CERAMIC1_p1_k2_3 t_BAKE_CERAMIC1_p1_k2_2)) (?v_59 (- t_BAKE_CERAMIC3_p5_k1_3 t_FIRE_KILN1_k1_1)) (?v_43 (> (- t_FIRE_KILN1_k1_2 t_FIRE_KILN1_k1_1) 8))) (let ((?v_50 (or (<= ?v_59 3) ?v_43)) (?v_56 (- t_BAKE_CERAMIC3_p6_k1_3 t_FIRE_KILN1_k1_1))) (let ((?v_51 (or (<= ?v_56 3) ?v_43)) (?v_47 (- t_BAKE_CERAMIC3_p4_k1_3 t_FIRE_KILN1_k1_1)) (?v_46 (> (- t_FIRE_KILN1_k1_1 t_FIRE_KILN1_k1_2) 8)) (?v_45 (- t_BAKE_CERAMIC3_p4_k2_2 t_BAKE_CERAMIC3_p4_k1_3)) (?v_44 (- t_BAKE_CERAMIC3_p4_k1_3 t_BAKE_CERAMIC3_p4_k2_2))) (let ((?v_55 (or (<= (- t_BAKE_STRUCTURE_p5_p6_k1_5 t_FIRE_KILN1_k1_2) 5) ?v_46)) (?v_52 (- t_BAKE_STRUCTURE_p3_p4_k1_5 t_FIRE_KILN1_k1_2)) (?v_49 (- t_BAKE_CERAMIC2_p3_k2_2 t_BAKE_CERAMIC2_p3_k2_3)) (?v_48 (- t_BAKE_CERAMIC2_p3_k2_3 t_BAKE_CERAMIC2_p3_k2_2)) (?v_54 (- t_BAKE_CERAMIC3_p6_k2_2 t_BAKE_CERAMIC3_p6_k1_3)) (?v_53 (- t_BAKE_CERAMIC3_p6_k1_3 t_BAKE_CERAMIC3_p6_k2_2)) (?v_58 (- t_BAKE_CERAMIC3_p5_k2_2 t_BAKE_CERAMIC3_p5_k1_3)) (?v_57 (- t_BAKE_CERAMIC3_p5_k1_3 t_BAKE_CERAMIC3_p5_k2_2))) (and (= St_spy_variable (+ 1 t_Init_0)) (>= t_Goal_6 t_Init_0) (>= (- t_BAKE_CERAMIC2_p2_k2_2 t_Init_0) 0) (>= (- t_Goal_6 t_BAKE_CERAMIC2_p2_k2_2) 10) (>= (- t_TREAT_CERAMIC2_p2_3 t_Init_0) 0) (>= (- t_Goal_6 t_TREAT_CERAMIC2_p2_3) 2) (>= (- t_BAKE_CERAMIC2_p2_k2_3 t_Init_0) 0) (>= (- t_Goal_6 t_BAKE_CERAMIC2_p2_k2_3) 10) (>= (- t_BAKE_CERAMIC1_p1_k2_2 t_Init_0) 0) (>= (- t_Goal_6 t_BAKE_CERAMIC1_p1_k2_2) 15) (>= (- t_TREAT_CERAMIC1_p1_3 t_Init_0) 0) (>= (- t_Goal_6 t_TREAT_CERAMIC1_p1_3) 3) (>= (- t_FIRE_KILN2_k2_2 t_Init_0) 0) (>= (- t_Goal_6 t_FIRE_KILN2_k2_2) 20) (>= (- t_BAKE_CERAMIC1_p1_k2_3 t_Init_0) 0) (>= (- t_Goal_6 t_BAKE_CERAMIC1_p1_k2_3) 15) (>= (- t_MAKE_STRUCTURE_p1_p2_4 t_Init_0) 0) (>= (- t_Goal_6 t_MAKE_STRUCTURE_p1_p2_4) 1) (>= (- t_BAKE_STRUCTURE_p1_p2_k1_5 t_Init_0) 0) (>= ?v_14 3) (>= (- t_BAKE_CERAMIC3_p4_k2_2 t_Init_0) 0) (>= (- t_Goal_6 t_BAKE_CERAMIC3_p4_k2_2) 5) (>= (- t_TREAT_CERAMIC3_p4_3 t_Init_0) 0) (>= (- t_Goal_6 t_TREAT_CERAMIC3_p4_3) 1) (>= (- t_BAKE_CERAMIC3_p4_k1_3 t_Init_0) 0) (>= (- t_Goal_6 t_BAKE_CERAMIC3_p4_k1_3) 5) (>= (- t_BAKE_CERAMIC2_p3_k2_2 t_Init_0) 0) (>= (- t_Goal_6 t_BAKE_CERAMIC2_p3_k2_2) 10) (>= (- t_TREAT_CERAMIC2_p3_3 t_Init_0) 0) (>= (- t_Goal_6 t_TREAT_CERAMIC2_p3_3) 2) (>= (- t_BAKE_CERAMIC2_p3_k2_3 t_Init_0) 0) (>= (- t_Goal_6 t_BAKE_CERAMIC2_p3_k2_3) 10) (>= (- t_MAKE_STRUCTURE_p3_p4_4 t_Init_0) 0) (>= (- t_Goal_6 t_MAKE_STRUCTURE_p3_p4_4) 1) (>= (- t_BAKE_STRUCTURE_p3_p4_k1_5 t_Init_0) 0) (>= ?v_24 3) (>= (- t_BAKE_CERAMIC3_p6_k2_2 t_Init_0) 0) (>= (- t_Goal_6 t_BAKE_CERAMIC3_p6_k2_2) 5) (>= (- t_TREAT_CERAMIC3_p6_3 t_Init_0) 0) (>= (- t_Goal_6 t_TREAT_CERAMIC3_p6_3) 1) (>= (- t_BAKE_CERAMIC3_p6_k1_3 t_Init_0) 0) (>= (- t_Goal_6 t_BAKE_CERAMIC3_p6_k1_3) 5) (>= (- t_FIRE_KILN2_k2_1 t_Init_0) 0) (>= (- t_Goal_6 t_FIRE_KILN2_k2_1) 20) (>= (- t_BAKE_CERAMIC3_p5_k2_2 t_Init_0) 0) (>= (- t_Goal_6 t_BAKE_CERAMIC3_p5_k2_2) 5) (>= (- t_TREAT_CERAMIC3_p5_3 t_Init_0) 0) (>= (- t_Goal_6 t_TREAT_CERAMIC3_p5_3) 1) (>= (- t_FIRE_KILN1_k1_2 t_Init_0) 0) (>= (- t_Goal_6 t_FIRE_KILN1_k1_2) 8) (>= (- t_BAKE_CERAMIC3_p5_k1_3 t_Init_0) 0) (>= (- t_Goal_6 t_BAKE_CERAMIC3_p5_k1_3) 5) (>= (- t_MAKE_STRUCTURE_p5_p6_4 t_Init_0) 0) (>= (- t_Goal_6 t_MAKE_STRUCTURE_p5_p6_4) 1) (>= (- t_FIRE_KILN1_k1_1 t_Init_0) 0) (>= (- t_Goal_6 t_FIRE_KILN1_k1_1) 8) (>= (- t_BAKE_STRUCTURE_p5_p6_k1_5 t_Init_0) 0) (>= ?v_34 3) ?v_2 ?v_3 ?v_4 ?v_5 ?v_6 ?v_7 ?v_8 (<= ?v_0 10) (< ?v_0 10) (>= ?v_0 2) (<= ?v_1 8) (>= ?v_1 0) (>= (- t_MAKE_STRUCTURE_p1_p2_4 t_TREAT_CERAMIC2_p2_3) 2) ?v_2 ?v_3 ?v_4 ?v_5 ?v_6 ?v_7 ?v_8 (< ?v_9 10) (>= ?v_9 2) (>= (- t_MAKE_STRUCTURE_p1_p2_4 t_BAKE_CERAMIC2_p2_k2_3) 10) ?v_2 ?v_3 ?v_4 ?v_5 ?v_6 ?v_7 (< ?v_10 5) (>= ?v_10 2) (<= ?v_11 12) (>= ?v_11 0) (>= (- t_MAKE_STRUCTURE_p1_p2_4 t_TREAT_CERAMIC1_p1_3) 3) (<= ?v_12 5) (>= ?v_12 2) (>= (- t_MAKE_STRUCTURE_p1_p2_4 t_BAKE_CERAMIC1_p1_k2_3) 15) (>= (- t_BAKE_STRUCTURE_p1_p2_k1_5 t_MAKE_STRUCTURE_p1_p2_4) 1) ?v_21 ?v_22 (<= ?v_13 5) (< ?v_13 5) (>= ?v_13 1) (>= ?v_14 4) ?v_2 ?v_3 ?v_4 ?v_5 ?v_6 (< ?v_15 15) (>= ?v_15 2) (<= ?v_16 4) (>= ?v_16 0) (>= (- t_MAKE_STRUCTURE_p3_p4_4 t_TREAT_CERAMIC3_p4_3) 1) ?v_27 ?v_28 (<= ?v_17 3) (< ?v_17 3) (>= ?v_17 1) (>= (- t_MAKE_STRUCTURE_p3_p4_4 t_BAKE_CERAMIC3_p4_k1_3) 5) ?v_2 ?v_3 ?v_4 ?v_5 (< ?v_18 10) (>= ?v_18 2) (<= ?v_19 8) (>= ?v_19 0) (>= (- t_MAKE_STRUCTURE_p3_p4_4 t_TREAT_CERAMIC2_p3_3) 2) ?v_2 ?v_3 ?v_4 (< ?v_20 10) (>= ?v_20 2) (>= (- t_MAKE_STRUCTURE_p3_p4_4 t_BAKE_CERAMIC2_p3_k2_3) 10) (>= (- t_BAKE_STRUCTURE_p3_p4_k1_5 t_MAKE_STRUCTURE_p3_p4_4) 1) ?v_21 ?v_22 (< ?v_23 5) (>= ?v_23 1) (>= ?v_24 4) ?v_2 ?v_3 (< ?v_25 15) (>= ?v_25 2) (<= ?v_26 4) (>= ?v_26 0) (>= (- t_MAKE_STRUCTURE_p5_p6_4 t_TREAT_CERAMIC3_p6_3) 1) ?v_27 ?v_28 (< ?v_29 3) (>= ?v_29 1) (>= (- t_MAKE_STRUCTURE_p5_p6_4 t_BAKE_CERAMIC3_p6_k1_3) 5) ?v_2 (>= ?v_30 2) (<= ?v_31 4) (>= ?v_31 0) (>= (- t_MAKE_STRUCTURE_p5_p6_4 t_TREAT_CERAMIC3_p5_3) 1) ?v_27 (>= ?v_32 1) (>= (- t_MAKE_STRUCTURE_p5_p6_4 t_BAKE_CERAMIC3_p5_k1_3) 5) (>= (- t_BAKE_STRUCTURE_p5_p6_k1_5 t_MAKE_STRUCTURE_p5_p6_4) 1) ?v_21 (>= ?v_33 1) (>= ?v_34 4) ?v_37 (or ?v_38 (< (- t_BAKE_CERAMIC2_p2_k2_2 t_FIRE_KILN2_k2_2) 10)) (or (>= (- t_BAKE_CERAMIC2_p2_k2_2 t_MAKE_STRUCTURE_p1_p2_4) 1) (< ?v_36 7)) (or (<= ?v_35 0) (> ?v_35 10)) (or (>= ?v_36 3) (> ?v_35 7)) (or (> ?v_36 10) (< (- t_TREAT_CERAMIC2_p2_3 t_BAKE_CERAMIC2_p2_k2_3) 8)) ?v_37 (or ?v_38 (< (- t_BAKE_CERAMIC2_p2_k2_3 t_FIRE_KILN2_k2_2) 10)) ?v_37 (or ?v_38 (< (- t_BAKE_CERAMIC1_p1_k2_2 t_FIRE_KILN2_k2_2) 5)) (or (>= (- t_BAKE_CERAMIC1_p1_k2_2 t_MAKE_STRUCTURE_p1_p2_4) 1) (< ?v_40 10)) (or (<= ?v_39 0) (> ?v_39 15)) (or (>= ?v_40 5) (> ?v_39 10)) (or (> ?v_40 15) (< (- t_TREAT_CERAMIC1_p1_3 t_BAKE_CERAMIC1_p1_k2_3) 12)) (or (<= (- t_BAKE_CERAMIC3_p5_k2_2 t_FIRE_KILN2_k2_2) 15) ?v_38) (or (<= (- t_BAKE_CERAMIC3_p6_k2_2 t_FIRE_KILN2_k2_2) 15) ?v_38) (or (<= (- t_BAKE_CERAMIC2_p3_k2_3 t_FIRE_KILN2_k2_2) 10) ?v_38) (or (<= (- t_BAKE_CERAMIC2_p3_k2_2 t_FIRE_KILN2_k2_2) 10) ?v_38) (or (<= (- t_BAKE_CERAMIC3_p4_k2_2 t_FIRE_KILN2_k2_2) 15) ?v_38) (or ?v_41 (< ?v_42 5)) ?v_50 ?v_51 (or (<= ?v_47 3) ?v_43) (or ?v_46 (< (- t_BAKE_STRUCTURE_p1_p2_k1_5 t_FIRE_KILN1_k1_2) 5)) (or (>= (- t_BAKE_CERAMIC3_p4_k2_2 t_MAKE_STRUCTURE_p3_p4_4) 1) (< ?v_45 4)) (or (<= ?v_44 0) (> ?v_44 5)) (or (>= ?v_45 1) (> ?v_44 4)) (or (> ?v_45 5) (< (- t_TREAT_CERAMIC3_p4_3 t_BAKE_CERAMIC3_p4_k1_3) 4)) ?v_55 (or (<= ?v_52 5) ?v_46) (or ?v_43 (< ?v_47 3)) (or (>= (- t_BAKE_CERAMIC2_p3_k2_2 t_MAKE_STRUCTURE_p3_p4_4) 1) (< ?v_49 7)) (or (<= ?v_48 0) (> ?v_48 10)) (or (>= ?v_49 3) (> ?v_48 7)) (or (> ?v_49 10) (< (- t_TREAT_CERAMIC2_p3_3 t_BAKE_CERAMIC2_p3_k2_3) 8)) ?v_50 ?v_51 (or ?v_46 (< ?v_52 5)) (or (>= (- t_BAKE_CERAMIC3_p6_k2_2 t_MAKE_STRUCTURE_p5_p6_4) 1) (< ?v_54 4)) (or (<= ?v_53 0) (> ?v_53 5)) (or (>= ?v_54 1) (> ?v_53 4)) (or (> ?v_54 5) (< (- t_TREAT_CERAMIC3_p6_3 t_BAKE_CERAMIC3_p6_k1_3) 4)) ?v_55 (or ?v_43 (< ?v_56 3)) (or (>= (- t_BAKE_CERAMIC3_p5_k2_2 t_MAKE_STRUCTURE_p5_p6_4) 1) (< ?v_58 4)) (or (<= ?v_57 0) (> ?v_57 5)) (or (>= ?v_58 1) (> ?v_57 4)) (or (> ?v_58 5) (< (- t_TREAT_CERAMIC3_p5_3 t_BAKE_CERAMIC3_p5_k1_3) 4)) ?v_55 (or ?v_43 (< ?v_59 3))))))))))))))))))))
(check-sat)
(exit)
